experiments/sat_smt/run/sat-r+/results/paul.res
solved=true
solvingTime=626.4327392578125
nActions=26