experiments/sat_smt/run/sat-r+/results/paul.out
Timesteps: 1
s UNSATISFIABLE
real 0.16
user 0.02
sys 0.00
Timesteps: 2
s UNSATISFIABLE
real 0.16
user 0.04
sys 0.00
Timesteps: 3
s UNSATISFIABLE
real 0.26
user 0.08
sys 0.01
Timesteps: 4
s UNSATISFIABLE
real 0.27
user 0.16
sys 0.01
Timesteps: 5
s UNSATISFIABLE
real 0.67
user 0.36
sys 0.02
Timesteps: 6
s UNSATISFIABLE
real 0.71
user 0.52
sys 0.01
Timesteps: 7
s UNSATISFIABLE
real 1.36
user 1.15
sys 0.01
Timesteps: 8
s UNSATISFIABLE
real 2.32
user 2.08
sys 0.02
Timesteps: 9
s UNSATISFIABLE
real 5.80
user 5.30
sys 0.02
Timesteps: 10
s UNSATISFIABLE
real 16.83
user 16.08
sys 0.05
Timesteps: 11
s UNSATISFIABLE
real 17.41
user 16.60
sys 0.06
Timesteps: 12
s UNSATISFIABLE
real 14.07
user 13.28
sys 0.05
Timesteps: 13
s UNSATISFIABLE
real 15.63
user 15.15
sys 0.05
Timesteps: 14
s UNSATISFIABLE
real 18.88
user 18.43
sys 0.06
Timesteps: 15
s UNSATISFIABLE
real 20.47
user 20.01
sys 0.05
Timesteps: 16
s UNSATISFIABLE
real 16.53
user 16.03
sys 0.07
Timesteps: 17
s UNSATISFIABLE
real 24.58
user 24.00
sys 0.07
Timesteps: 18
s UNSATISFIABLE
real 25.05
user 24.27
sys 0.07
Timesteps: 19
s UNSATISFIABLE
real 27.83
user 27.20
sys 0.08
Timesteps: 20
s UNSATISFIABLE
real 49.26
user 48.48
sys 0.11
Timesteps: 21
s UNSATISFIABLE
real 30.54
user 29.85
sys 0.10
Timesteps: 22
s UNSATISFIABLE
real 42.39
user 41.61
sys 0.12
Timesteps: 23
s UNSATISFIABLE
real 40.26
user 39.47
sys 0.12
Timesteps: 24
s UNSATISFIABLE
real 72.14
user 71.19
sys 0.14
Timesteps: 25
s UNSATISFIABLE
real 74.23
user 73.09
sys 0.16
Timesteps: 26
s SATISFIABLE
real 112.91
user 111.67
sys 0.22
